46 48
1 25
1 25
1 25
1 25
1 25
1 25
1 25
1 25
1 25
1 25
1 25
1 25
1 25
1 25
1 25
1 25
1 25
1 25
1 25
1 25
1 25
1 25
1 25
49 25
49 25
49 25
49 25
49 25
49 25
49 25
49 25
49 25
49 25
49 25
49 25
49 25
49 25
49 25
49 25
49 25
49 25
49 25
49 25
49 25
49 25
49 25
